%mem=50gb
%nproc=50
%chk=MaDA-TS-2-conf-1.chk 

# wb97xd/6-311++G(d,p) integral(ultrafinegrid) guess=read geom=check scrf=(cpcm,read,solvent=water)

Candidate Structure: MaDA-TS-2, Conformer: 1, Single-point energies calculated with wB97X-D/6-311++G(d,p)

0 1




