%mem=28gb
%nproc=14
%chk=MaDA-1-conf-1.chk 

# wb97xd/6-31G(d) opt freq=noraman integral(ultrafinegrid) scrf=(cpcm,read,solvent=water)

Candidate Structure: MaDA-1, Conformer: 1, geometry optimization and frequency calculation with water solvation

0 1 
 C  -6.49866700  1.91475900  -1.59337900
 C  -7.39138600  0.89133000  -1.90612600
 C  -7.32804000  -0.31786900  -1.22125800
 C  -6.37033800  -0.48645600  -0.22377700
 C  -5.46621800  0.51293100  0.12079400
 C  -5.55070300  1.71857800  -0.59706500
 H  -6.55951200  2.85213500  -2.13987400
 H  -8.01628200  -1.12485900  -1.46006400
 H  -6.32778500  -1.43909000  0.29443800
 O  -8.29545900  1.14081100  -2.89079600
 H  -8.84721100  0.35937200  -3.01437500
 O  -4.65384800  2.69640700  -0.27349800
 H  -4.84639100  3.48569000  -0.79329000
 C  -4.39791500  0.36486500  1.19153500
 H  -4.35082300  1.32077800  1.72534700
 C  -3.02603700  0.16153000  0.50551300
 H  -2.97396700  0.84418000  -0.33962500
 C  -1.84732800  0.43131700  1.42851900
 O  -1.82587700  -0.11996100  2.54051300
 C  -0.69396800  1.19416200  0.94247500
 C  -0.75078300  2.03260600  -0.18788300
 C  0.57895600  0.95475900  1.52747100
 C  0.38459600  2.57839500  -0.73707000
 H  -1.71369200  2.27501300  -0.62408300
 C  1.75527600  1.45957600  0.94924800
 C  1.63801200  2.26116100  -0.18680000
 H  0.34481200  3.24050000  -1.59479400
 O  0.71791000  0.19572800  2.61771900
 H  -0.18722400  -0.08155400  2.89608600
 O  2.71711400  2.77072800  -0.82058000
 H  3.50767800  2.63408300  -0.27037200
 C  1.33090800  -1.46203600  -1.05129800
 C  0.41405100  -0.89393500  -1.94021000
 C  0.87558500  -2.11753400  0.08468300
 C  -0.93609100  -0.92540800  -1.63441500
 H  0.75867200  -0.39211300  -2.84019700
 C  -0.48896300  -2.13081800  0.38524400
 H  1.56547100  -2.53888100  0.80513100
 C  -1.42880100  -1.52666600  -0.46636800
 O  -0.81460100  -2.70908100  1.56588600
 H  -1.71306400  -2.44710700  1.82525800
 O  -1.85507600  -0.31172300  -2.43669100
 H  -1.39095100  0.11440200  -3.16654500
 C  -2.88511500  -1.27321400  -0.10071100
 H  -3.44788800  -1.24999800  -1.04202300
 C  -3.51208100  -2.34793600  0.75034600
 H  -3.29617500  -3.37311400  0.45016800
 C  -4.33793200  -2.12496300  1.77777000
 C  -4.69729400  -0.73085100  2.22312700
 H  -5.76162200  -0.69731700  2.49130200
 H  -4.14018700  -0.51562400  3.14144800
 C  -4.95190800  -3.24705700  2.56785600
 H  -4.60231500  -4.22600500  2.22732100
 H  -4.71003800  -3.14671400  3.63344200
 H  -6.04677100  -3.22512500  2.48993100
 C  4.83292700  -0.60797900  -1.80935700
 C  4.87785300  -1.68079700  -0.90710800
 C  6.04793600  -2.23623900  -0.41453600
 C  7.23453200  -1.67016700  -0.87003100
 C  7.22972500  -0.59770100  -1.78233500
 C  6.04007600  -0.06276000  -2.25338500
 C  3.43375100  -0.35588500  -2.02882500
 C  2.75827400  -1.26747500  -1.28312800
 H  6.05427400  -3.06392700  0.28407800
 H  8.17732100  -0.18303000  -2.11925600
 H  6.05339400  0.76674600  -2.95344900
 H  2.99642100  0.43855600  -2.61516500
 O  8.39456400  -2.20174800  -0.39554600
 H  9.14086100  -1.73476200  -0.78878900
 O  3.62218900  -2.08190000  -0.58929800
 C  3.10633100  1.09702900  1.52821000
 H  2.93853200  0.55708300  2.46444100
 H  3.61071800  0.39335400  0.85476000
 C  3.96898100  2.30793900  1.79615700
 H  3.43290500  3.15040100  2.23546500
 C  5.28416500  2.45328100  1.57887800
 C  6.18922100  1.38627500  1.02408800
 H  6.73188300  1.75413600  0.14517700
 H  6.94604400  1.11521700  1.77124900
 H  5.66756400  0.47261500  0.73555700
 C  5.98148900  3.74359500  1.92909700
 H  5.28827100  4.49123500  2.32495800
 H  6.76255800  3.56883800  2.68004200
 H  6.48069700  4.16875900  1.04894700
