%mem=50gb
%nproc=50
%chk=MaDA-exo-1-conf-1.chk 

# wb97xd/6-311++G(d,p) integral(ultrafinegrid) guess=read geom=check scrf=(cpcm,read,solvent=water)

Candidate Structure: MaDA-exo-1, Conformer: 1, Single-point energies calculated with wB97X-D/6-311++G(d,p)

0 1




