%mem=28gb
%nproc=14
%chk=MaDA-4-conf-1.chk 

# wb97xd/6-31G(d) opt freq=noraman integral(ultrafinegrid) scrf=(cpcm,read,solvent=water)

Candidate Structure: MaDA-4, Conformer: 1, geometry optimization and frequency calculation with water solvation

0 1
 C  -3.84489800  -1.04914100  -0.00019000
 C  -3.75594500  0.34927700  0.00003100
 C  -4.84848300  1.20092200  0.00014900
 C  -6.09901400  0.59223200  0.00003200
 C  -6.22941500  -0.81009900  -0.00019300
 C  -5.11440700  -1.63358400  -0.00030400
 C  -2.48399700  -1.51511500  -0.00024400
 C  -1.69636800  -0.40882300  -0.00005300
 H  -4.75158500  2.27967400  0.00032200
 H  -7.22382500  -1.25085200  -0.00028000
 H  -5.23329200  -2.71250700  -0.00047800
 H  -2.14816900  -2.54190500  -0.00042400
 O  -7.18516700  1.41220100  0.00014400
 H  -7.98691300  0.87649600  0.00004300
 O  -2.45658300  0.73767200  0.00011400
 C  -0.24984100  -0.22127400  -0.00001500
 C  0.29609000  1.06128800  -0.00006500
 C  0.60776700  -1.32139200  0.00006200
 C  1.67652800  1.22759600  -0.00004400
 H  -0.36005900  1.92612000  -0.00012400
 C  1.98722900  -1.14032500  0.00007700
 H  0.20415200  -2.33082000  0.00013100
 C  2.57507600  0.14036900  0.00002300
 O  2.81479900  -2.21797300  0.00015400
 H  2.28143800  -3.02163500  0.00019500
 O  2.21987500  2.47468000  -0.00009400
 H  1.50770300  3.12470100  -0.00013300
 C  4.01107500  0.42451900  0.00003900
 H  4.23224000  1.48694900  0.00002000
 C  5.04571700  -0.43561500  0.00006800
 H  4.87045100  -1.50470800  0.00008400
 C  6.45319400  -0.02067400  0.00007900
 C  7.41606300  -0.95301400  0.00010700
 H  7.17759900  -2.01347400  0.00012200
 H  8.46967100  -0.68816300  0.00011600
 C  6.78809000  1.44882000  0.00005800
 H  6.37022200  1.94817400  -0.88195700
 H  6.37020000  1.94820500  0.88204500
 H  7.87001300  1.60529900  0.00006900
