%mem=56gb
%nproc=28
%chk=MaDA-TS-1-conf-1.chk 

# wb97xd/6-31G(d) opt(calcfc,noeigen,TS) freq=noraman integral(ultrafinegrid) scrf=(cpcm,read,solvent=water)

Candidate Structure: MaDA-TS-1, Conformer: 1, geometry optimization and frequency calculation with water solvation

0 1
 C  7.57884400  -1.77089500  0.78772000
 C  7.19830300  -2.99375000  0.24108400
 C  5.89945300  -3.17251700  -0.23209700
 C  4.99322300  -2.12278800  -0.13694500
 C  5.33338300  -0.89183200  0.42385400
 C  6.65739600  -0.73167200  0.86686100
 H  8.59900700  -1.64799200  1.14124500
 H  5.59967300  -4.11857700  -0.67619600
 H  3.98815300  -2.26266900  -0.52746400
 O  8.14429800  -3.96873800  0.19000600
 H  7.75981200  -4.75822500  -0.20888900
 O  7.00371400  0.48393300  1.36981400
 H  7.92595000  0.45994400  1.65073800
 C  4.37055300  0.23583100  0.51799100
 H  4.74076700  1.12061900  1.02618000
 C  3.00789100  -0.02506400  0.72143300
 H  2.61752900  -1.03004100  0.62872000
 C  2.15130300  1.03879200  1.15861700
 O  2.58839500  2.21912600  1.17808100
 C  0.74161500  0.77212900  1.53201400
 C  0.24267700  -0.51761100  1.76103800
 C  -0.17008900  1.84989200  1.60262600
 C  -1.09055300  -0.75043800  2.02237500
 H  0.92169700  -1.36325100  1.74221200
 C  -1.53908400  1.63629800  1.83986900
 C  -1.98157300  0.32715400  2.03212300
 H  -1.47710400  -1.75013000  2.18358900
 O  0.23071700  3.11549100  1.41419900
 H  1.22350400  3.06604300  1.30748900
 O  -3.28833600  0.01798900  2.23589400
 H  -3.82703200  0.81618600  2.19342500
 C  -1.99866800  -1.21256200  -1.22041900
 C  -0.88800300  -2.04389600  -1.39400300
 C  -1.83936200  0.16294500  -1.32476400
 C  0.35991800  -1.48120100  -1.61136600
 H  -0.99066600  -3.12385900  -1.32388500
 C  -0.57946800  0.71907200  -1.51628200
 H  -2.69236900  0.81737800  -1.20412700
 C  0.56862700  -0.08393100  -1.66616300
 O  -0.44165600  2.06408900  -1.54147500
 H  -1.19970600  2.46160000  -1.07895400
 O  1.46653900  -2.27211700  -1.73444300
 H  1.19509300  -3.19515000  -1.67143200
 C  1.93453700  0.40952600  -1.71080800
 H  2.66973400  -0.38003100  -1.79421400
 C  2.37326700  1.71162900  -1.74591600
 H  1.64955300  2.51520000  -1.77146600
 C  3.72436800  2.05440900  -1.50971600
 C  4.69104100  1.06903000  -1.30662000
 H  4.59457800  0.12186300  -1.82641400
 H  5.72259500  1.38628200  -1.16741900
 C  4.09017900  3.49517900  -1.26933700
 H  4.88664200  3.82343700  -1.94678900
 H  3.22923900  4.15630900  -1.39883800
 H  4.44852700  3.61519800  -0.24092300
 C  -2.48905500  2.81594700  1.79178100
 H  -1.93738000  3.72025900  2.05051100
 H  -3.27013900  2.71586800  2.56065200
 C  -3.14123500  2.93997600  0.43491000
 H  -3.86733200  2.15771600  0.20357600
 C  -2.90872500  3.85687900  -0.51564800
 C  -3.63715200  3.79290300  -1.83576700
 H  -2.92728700  3.64714000  -2.66036000
 H  -4.36592800  2.97715900  -1.86540100
 H  -4.16520200  4.73375000  -2.03426800
 C  -1.93450300  5.00076200  -0.38617900
 H  -2.47512600  5.95197200  -0.30105500
 H  -1.26180500  4.89444600  0.46577700
 H  -1.31471600  5.06927400  -1.28868700
 C  -5.12314300  -2.89670200  -0.22547900
 C  -5.41861500  -1.53166600  -0.33830700
 C  -6.66266600  -0.97879100  -0.08313000
 C  -7.65760600  -1.86586100  0.31379500
 C  -7.39922700  -3.24430000  0.44001500
 C  -6.14247400  -3.76521600  0.17331000
 C  -3.73335000  -3.01285500  -0.57787300
 C  -3.30206800  -1.75837300  -0.86688800
 H  -6.86606400  0.08061600  -0.18310900
 H  -8.20183800  -3.90844900  0.75286300
 H  -5.96111700  -4.83047600  0.27618100
 H  -3.13820600  -3.91436500  -0.59467200
 O  -8.88639500  -1.34060500  0.57268800
 H  -9.48408500  -2.04916100  0.83819400
 O  -4.32086400  -0.84347700  -0.73264500


