%mem=28gb
%nproc=14
%chk=MaDA-2-conf-1.chk 

# wb97xd/6-31G(d) opt freq=noraman integral(ultrafinegrid) scrf=(cpcm,read,solvent=water)

Candidate Structure: MaDA-2, Conformer: 1, geometry optimization and frequency calculation with water solvation

0 1
 C  6.73079200  0.48165900  -0.00954600
 C  6.93954400  -0.87828000  0.20066100
 C  5.85157500  -1.73960800  0.36609600
 C  4.56830500  -1.22104100  0.31413000
 C  4.31432400  0.13860600  0.09814100
 C  5.43412800  0.98307500  -0.05741300
 H  7.59184200  1.13196400  -0.13540600
 H  6.00986100  -2.80029900  0.54236100
 H  3.73115400  -1.89565000  0.46347500
 O  8.22465400  -1.30526900  0.23883900
 H  8.23933600  -2.25863700  0.38648000
 O  5.19660500  2.30069800  -0.26379700
 H  6.03527000  2.77171900  -0.33471300
 C  2.97093800  0.70590900  0.04468100
 H  2.90286200  1.79034800  0.05854700
 C  1.81346800  0.02673000  -0.02690600
 H  1.80337500  -1.05543000  -0.07357800
 C  0.53118500  0.75837000  -0.04927000
 O  0.53938800  1.99661200  0.07439400
 C  -0.73765100  0.03194000  -0.20853000
 C  -0.80700500  -1.35968900  -0.41200000
 C  -1.96334200  0.75212700  -0.16683400
 C  -2.00652000  -2.01720400  -0.54471500
 H  0.10308700  -1.94510800  -0.47067800
 C  -3.20091900  0.09917900  -0.30155500
 C  -3.20305400  -1.28598100  -0.47989800
 H  -2.05812700  -3.08954800  -0.69372600
 O  -1.98881000  2.07778300  -0.00621600
 H  -1.04047800  2.36880800  0.05527900
 O  -4.34671700  -1.98966600  -0.61872600
 H  -5.09428300  -1.44508400  -0.31814200
 C  -4.48855500  0.89853800  -0.30535600
 H  -4.24015300  1.93664800  -0.06685400
 H  -4.90616300  0.90864200  -1.31897500
 C  -5.50184900  0.39868900  0.69505600
 H  -5.11392300  0.30240500  1.70963800
 C  -6.78704300  0.07401500  0.48756800
 C  -7.49492600  0.15061000  -0.84145600
 H  -7.99439400  -0.80008500  -1.06516100
 H  -8.27881900  0.91749000  -0.80628800
 H  -6.83299000  0.38954400  -1.67615500
 C  -7.65785000  -0.38813700  1.62857400
 H  -7.10866800  -0.42593100  2.57343600
 H  -8.51442800  0.28574800  1.75726000
 H  -8.06859200  -1.38586600  1.42866500
